DIMENSION: 7
EDGE_WEIGHT_TYPE: EXPLICIT
EDGE_WEIGHT_FORMAT: FULL_MATRIX
EDGE_WEIGHT_SECTION:
32767 32767 32767 32767 66 32767 96 
32767 32767 32767 32767 32767 35 32767 
32767 32767 32767 32767 32767 32767 32767 
32767 32767 32767 32767 32767 48 3 
66 32767 32767 32767 32767 56 90 
32767 35 32767 48 56 32767 32767 
96 32767 32767 3 90 32767 32767 
EOF